10J3M/DAT/10J3MNNR-17.dat
10 3
28.4114 48.2148
20.2917 5.2531
20.0128 14.4772
26.1165 4.4574
21.656 40.9017
31.9977 22.385
23.8079 46.7114
25.3177 26.9749
23.028 6.6828
19.4342 24.9673
241.0256