10J3M/SOL/10J3MNNR-17.sol
solution status: optimal solution found
objective value:                     80.0246333333333
x#1#3                                               1 	(obj:0)
x#2#2                                               1 	(obj:0)
x#3#2                                               1 	(obj:0)
x#4#1                               0.526660667904709 	(obj:0)
x#4#3                               0.473339332095291 	(obj:0)
x#5#2                                               1 	(obj:0)
x#6#3                                               1 	(obj:0)
x#7#1                                               1 	(obj:0)
x#8#2                               0.713498198230224 	(obj:0)
x#8#3                               0.286501801769776 	(obj:0)
x#9#1                                               1 	(obj:0)
x#10#1                                              1 	(obj:0)
z                                    80.0246333333333 	(obj:1)
